num_teams = 10;
cost = [|0,39,44,48,18,39,16,12,39,5,
|22,0,16,31,5,44,31,36,44,26,
|48,6,0,49,45,23,9,18,21,13,
|5,14,47,0,24,21,9,37,9,17,
|22,47,40,39,0,1,7,43,28,47,
|48,50,47,23,39,0,41,25,31,29,
|35,15,11,6,1,42,0,25,46,5,
|13,6,19,47,7,49,12,0,38,19,
|20,8,15,33,15,48,38,40,0,32,
|19,37,31,47,45,28,22,19,48,0,
|];